; benchmark generated from python API
(set-info :status unknown)
(declare-datatypes ((IntState 0)) (((Mk1 (val1 Int)) (Mk2 (val2 Int)))))
 (declare-fun c_main_~i~6 () Int)
(declare-fun c_main_~j~6 () Int)
(declare-fun c_main_~k~6 () Int)
(assert
 (let (($x47 (<= 2 c_main_~i~6)))
 (let (($x149 (<= 3 c_main_~i~6)))
 (let (($x175 (exists ((v_nnf_74_st IntState) (val!124 Int) )(let (($x109 (and (<= c_main_~k~6 (+ (val2 v_nnf_74_st) 3)) (<= (* 2 (val2 v_nnf_74_st)) c_main_~j~6) (<= 4 (val2 v_nnf_74_st)))))
 (let (($x52 (not (= v_nnf_74_st (Mk1 val!124)))))
 (and $x52 $x109))))
 ))
 (let (($x65 (<= 0 c_main_~i~6)))
 (let (($x86 (<= 1 c_main_~i~6)))
 (let (($x137 (exists ((v_nnf_72 Int) )(let ((?x21 (* 2 v_nnf_72)))
 (let (($x173 (<= ?x21 c_main_~j~6)))
 (let (($x161 (<= 4 v_nnf_72)))
 (and (<= c_main_~k~6 (+ v_nnf_72 2)) $x161 $x173)))))
 ))
 (and (and $x86 $x137 $x65 $x149 $x47) (not (and $x86 $x65 $x175 $x149 $x47))))))))))
(check-sat)
